
List of user-set options:

                                    Name   Value                used
                           compl_inf_tol = 1                     yes
                         constr_viol_tol = 1                     yes
                            dual_inf_tol = 1000                  yes
                           linear_solver = ma97                  yes
                              ma86_small = 1e-30                  no
                                  ma86_u = 0.0001                 no
                              ma97_order = best                  yes
                              ma97_small = 1e-30                 yes
                            ma97_switch1 = at_start              yes
                            ma97_switch2 = od_hd_reuse           yes
                                  ma97_u = 1e-06                 yes
                               ma97_umax = 0.5                   yes
                                max_iter = 2000                  yes
                    max_refinement_steps = 20                    yes
                    min_refinement_steps = 5                     yes
                                 mu_init = 1e-06                 yes
           mu_superlinear_decrease_power = 1.25                  yes
                   nlp_scaling_min_value = 1e-08                 yes
                        option_file_name = Preset_Case:_283_NCP.opt  yes
                             output_file = ./tmp/Preset_Case:_283_NCP.output  yes
                      print_user_options = yes                   yes
        required_infeasibility_reduction = 1                      no
                                     tol = 1e-08                 yes
                   warm_start_bound_frac = 1e-20                 yes
                   warm_start_bound_push = 1e-20                 yes
                   warm_start_init_point = yes                   yes
              warm_start_mult_bound_push = 1e-20                 yes
                warm_start_mult_init_max = 1e+40                 yes
             warm_start_slack_bound_frac = 1e-20                 yes
             warm_start_slack_bound_push = 1e-20                 yes

******************************************************************************
This program contains Ipopt, a library for large-scale nonlinear optimization.
 Ipopt is released as open source code under the Eclipse Public License (EPL).
         For more information visit http://projects.coin-or.org/Ipopt
******************************************************************************

This is Ipopt version 3.12.10, running with linear solver ma97.

Number of nonzeros in equality constraint Jacobian...:   117140
Number of nonzeros in inequality constraint Jacobian.:      213
Number of nonzeros in Lagrangian Hessian.............:    47462

Total number of variables............................:    29971
                     variables with only lower bounds:    11312
                variables with lower and upper bounds:    15132
                     variables with only upper bounds:        0
Total number of equality constraints.................:    29864
Total number of inequality constraints...............:       25
        inequality constraints with only lower bounds:        4
   inequality constraints with lower and upper bounds:        0
        inequality constraints with only upper bounds:       21

iter    objective    inf_pr   inf_du lg(mu)  ||d||  lg(rg) alpha_du alpha_pr  ls
   0 -5.2932050e-02 3.17e-02 8.77e+01  -6.0 0.00e+00    -  0.00e+00 0.00e+00   0
In iteration 0, 3 Slacks too small, adjusting variable bounds
   1 -5.2932050e-02 3.17e-02 9.49e+03  -6.0 1.00e+06  -2.0 8.45e-09 3.00e-16f  1
   2 -5.2932050e-02 3.17e-02 9.49e+03  -6.0 8.38e+02  -2.5 2.48e-05 1.30e-09f  1
   3 -5.2934693e-02 3.17e-02 9.49e+03  -6.0 2.58e+03  -3.0 1.33e-06 6.81e-05f  1
   4 -5.2934758e-02 3.17e-02 9.49e+03  -6.0 2.57e+03  -2.5 8.68e-05 2.02e-06f  2
   5 -5.2945490e-02 3.17e-02 9.49e+03  -6.0 2.57e+03  -3.0 1.48e-05 2.56e-04h  1
   6 -5.2951036e-02 3.17e-02 9.49e+03  -6.0 2.55e+03  -2.6 8.76e-06 1.63e-04f  1
   7 -5.2953231e-02 3.17e-02 9.49e+03  -6.0 2.54e+03  -2.2 3.02e-05 5.75e-05f  1
   8 -5.3024743e-02 3.17e-02 4.28e+04  -6.0 2.54e+03  -2.6 1.59e-04 1.71e-03f  1
   9 -5.3029725e-02 3.17e-02 3.91e+04  -6.0 2.41e+03  -2.2 1.80e-04 1.16e-04f  1
iter    objective    inf_pr   inf_du lg(mu)  ||d||  lg(rg) alpha_du alpha_pr  ls
  10 -5.3101318e-02 3.16e-02 6.40e+04  -6.0 2.40e+03  -2.7 8.81e-05 1.50e-03f  1
  11 -5.3117931e-02 3.16e-02 4.13e+04  -6.0 2.29e+03  -2.3 8.88e-04 3.85e-04f  1
  12 -5.3168017e-02 3.16e-02 4.38e+04  -6.0 2.24e+03  -2.7 1.03e-03 1.22e-03f  1
  13 -5.3224182e-02 3.15e-02 3.05e+05  -6.0 2.17e+03  -2.3 1.12e-02 1.33e-03f  1
  14 -5.3667467e-02 6.30e-01 2.71e+05  -6.0 2.03e+03  -2.8 4.67e-03 9.14e-03f  1
  15 -5.3718016e-02 6.39e-01 6.58e+05  -6.0 1.55e+03  -2.4 2.84e-02 1.42e-03h  1
  16 -5.3878527e-02 1.55e+00 6.59e+05  -6.0 1.44e+03  -2.8 6.46e-02 1.04e-02h  1
  17 -5.4018031e-02 1.97e+00 8.58e+05  -6.0 1.18e+03  -2.4 4.53e-02 1.02e-02h  1
  18 -5.4007194e-02 2.02e+00 8.60e+05  -6.0 9.39e+02  -2.9 1.39e-03 3.49e-03h  1
  19 -5.3999498e-02 2.02e+00 8.61e+05  -6.0 7.92e+02  -3.4 2.02e-06 1.08e-04h  4
iter    objective    inf_pr   inf_du lg(mu)  ||d||  lg(rg) alpha_du alpha_pr  ls
  20r-5.3999498e-02 2.02e+00 1.00e+03  -0.1 0.00e+00  -2.9 0.00e+00 4.45e-07R  3
  21r-5.3981029e-02 2.02e+00 8.63e+03  -0.1 3.29e+05    -  3.93e-07 3.98e-07f  1
  22r-5.3981029e-02 2.02e+00 9.99e+02  -0.1 0.00e+00    -  0.00e+00 3.59e-07R  2
  23r-5.3979995e-02 2.02e+00 6.42e+03  -0.1 1.55e+04    -  7.13e-07 3.30e-08f  1
  24 -5.3980000e-02 2.02e+00 4.06e+06  -6.0 1.37e+01    -  5.54e-02 3.04e-05h  1
  25 -5.3982244e-02 2.02e+00 1.19e+08  -6.0 9.24e+02    -  3.33e-05 9.76e-04h  1
  26 -5.3994095e-02 2.01e+00 1.18e+08  -6.0 7.68e+02    -  9.87e-04 6.31e-03h  1
  27 -5.3996121e-02 2.00e+00 1.18e+08  -6.0 7.02e+02    -  1.06e-02 3.67e-03f  1
  28 -5.3995446e-02 1.98e+00 1.16e+08  -6.0 6.66e+02    -  2.93e-02 1.35e-02f  2
  29 -5.3970392e-02 1.94e+00 1.14e+08  -6.0 5.83e+02    -  4.95e-02 1.82e-02h  1
iter    objective    inf_pr   inf_du lg(mu)  ||d||  lg(rg) alpha_du alpha_pr  ls
  30 -5.3867701e-02 1.89e+00 1.11e+08  -6.0 6.36e+02    -  6.40e-02 2.49e-02h  1
  31 -5.3711053e-02 1.82e+00 1.07e+08  -6.0 5.40e+02    -  1.12e-01 4.08e-02h  2
  32 -5.3485566e-02 1.70e+00 1.00e+08  -6.0 4.25e+02    -  2.11e-01 6.36e-02h  1
  33 -5.2932556e-02 1.53e+00 8.96e+07  -6.0 3.12e+02    -  3.05e-01 1.05e-01h  2
  34 -5.1670475e-02 1.16e+00 6.61e+07  -6.0 2.02e+02    -  4.61e-01 2.62e-01h  1
  35r-5.1670475e-02 1.16e+00 1.00e+03  -0.3 0.00e+00    -  0.00e+00 4.66e-07R  4
  36r-5.1660007e-02 1.16e+00 2.38e+03  -0.3 3.11e+03    -  9.48e-06 1.37e-06f  1
  37 -5.1659988e-02 1.16e+00 2.71e+07  -6.0 9.33e+01    -  5.57e-01 3.77e-05h  1
  38 -5.1660637e-02 1.16e+00 1.24e+09  -6.0 1.23e+03    -  4.11e-05 1.88e-03h  1
  39 -5.1651917e-02 1.16e+00 1.24e+09  -6.0 3.05e+02    -  1.71e-03 1.39e-03h  1
iter    objective    inf_pr   inf_du lg(mu)  ||d||  lg(rg) alpha_du alpha_pr  ls
  40 -5.1069931e-02 4.99e-01 3.44e+08  -6.0 9.47e+01    -  1.90e-02 7.22e-01h  1
  41 -5.1333790e-02 2.41e-02 3.68e+06  -6.0 7.57e+00    -  5.07e-02 9.89e-01h  1
  42 -5.1349520e-02 1.21e-02 1.84e+06  -6.0 4.65e-01    -  6.84e-01 4.99e-01h  1
  43 -5.1461784e-02 1.16e-04 2.37e+03  -6.0 7.26e-01    -  5.04e-01 1.00e+00f  1
  44 -5.1693394e-02 2.60e-04 7.62e+02  -6.0 1.49e+00    -  6.80e-01 1.00e+00h  1
  45 -5.2443526e-02 2.46e-03 1.15e+02  -6.0 4.78e+00    -  8.48e-01 1.00e+00h  1
  46 -5.6180456e-02 9.66e-02 9.58e+01  -6.0 1.06e+02    -  1.68e-01 2.12e-01h  1
  47 -5.9029378e-02 1.32e-01 1.21e+02  -6.0 3.62e+01    -  1.13e-01 6.00e-01h  1
  48 -5.9079069e-02 1.23e-01 1.16e+03  -6.0 1.05e+00  -3.4 6.71e-02 6.39e-02h  1
  49 -5.9466259e-02 4.08e-02 6.28e+04  -6.0 8.80e-01  -3.9 1.89e-01 6.68e-01h  1
iter    objective    inf_pr   inf_du lg(mu)  ||d||  lg(rg) alpha_du alpha_pr  ls
  50 -6.1098192e-02 3.12e-02 1.89e+02  -6.0 2.32e+00  -4.4 1.38e-01 1.00e+00f  1
  51 -6.2631339e-02 3.64e-02 1.66e+02  -6.0 1.70e+01  -4.8 1.32e-01 1.21e-01h  1
  52 -6.2798420e-02 3.59e-02 1.60e+02  -6.0 2.07e+01  -5.3 8.01e-02 1.35e-02h  1
  53 -6.3799117e-02 3.13e-02 1.45e+02  -6.0 2.11e+01  -5.8 8.21e-02 9.31e-02f  1
  54 -6.3981208e-02 3.05e-02 1.40e+02  -6.0 2.36e+01  -6.3 3.07e-04 3.32e-02h  1
  55 -6.3971868e-02 3.10e-02 1.40e+02  -6.0 4.66e+03    -  3.85e-07 2.76e-04f  4
  56 -6.4029784e-02 3.11e-02 1.39e+02  -6.0 1.08e+02  -6.8 1.52e-02 7.68e-03h  1
  57 -6.4627346e-02 3.73e-02 1.24e+02  -6.0 8.47e+01    -  4.53e-03 1.01e-01f  1
  58 -6.5134533e-02 4.23e-02 1.16e+02  -6.0 1.01e+02    -  2.28e-03 6.28e-02f  1
  59 -6.5126294e-02 4.27e-02 1.16e+02  -6.0 3.03e+03    -  6.55e-06 3.67e-04f  2
iter    objective    inf_pr   inf_du lg(mu)  ||d||  lg(rg) alpha_du alpha_pr  ls
  60 -6.5181529e-02 4.28e-02 1.16e+02  -6.0 1.41e+02  -7.2 4.76e-02 6.75e-03h  1
  61 -6.5457467e-02 4.01e-02 1.12e+02  -6.0 4.30e+01    -  1.31e-01 3.99e-02f  1
  62 -6.6161315e-02 3.77e-02 1.03e+02  -6.0 3.59e+01    -  7.55e-02 8.11e-02f  1
  63 -6.8252880e-02 5.90e-02 7.86e+01  -6.0 4.25e+01    -  1.97e-01 2.28e-01h  1
  64 -7.1731526e-02 2.16e-01 3.98e+01  -6.0 5.84e+01    -  1.37e-01 3.19e-01f  1
  65 -7.3441883e-02 2.29e-01 2.23e+02  -6.0 5.56e+01    -  8.81e-02 1.50e-01h  1
  66 -8.0291887e-02 6.74e-01 6.64e+01  -6.0 7.01e+01    -  4.48e-01 5.40e-01h  1
  67 -8.0860123e-02 6.57e-01 6.39e+01  -6.0 8.33e+01    -  4.89e-02 4.08e-02h  1
  68 -8.1419438e-02 6.30e-01 2.86e+02  -6.0 7.24e+01    -  3.83e-01 5.14e-02h  1
  69 -8.6576792e-02 9.17e-01 4.95e+01  -6.0 1.98e+02    -  1.20e-01 3.53e-01h  1
iter    objective    inf_pr   inf_du lg(mu)  ||d||  lg(rg) alpha_du alpha_pr  ls
  70 -9.1732802e-02 1.37e+00 2.95e+02  -6.0 1.41e+02    -  2.82e-01 4.36e-01h  1
  71 -9.5600057e-02 1.30e+00 1.46e+02  -6.0 3.69e+02    -  2.96e-01 2.77e-01h  1
  72 -9.6033640e-02 1.28e+00 1.40e+02  -6.0 4.26e+03    -  4.22e-02 1.52e-02h  1
  73 -9.9649884e-02 2.91e+00 5.74e+02  -6.0 4.81e+02    -  4.22e-01 2.61e-01h  1
  74 -1.0092372e-01 2.98e+00 1.75e+03  -6.0 8.81e+02    -  5.28e-01 6.38e-02h  1
  75 -1.0353791e-01 4.39e+00 2.08e+03  -6.0 1.86e+03    -  3.84e-01 1.44e-01h  1
  76 -1.0353625e-01 4.35e+00 9.83e+02  -6.0 2.21e+01  -3.2 9.84e-03 7.82e-03h  1
  77 -1.0353308e-01 4.32e+00 2.05e+03  -6.0 1.20e+01  -2.8 2.52e-03 8.24e-03h  1
  78 -1.0353260e-01 4.29e+00 1.94e+03  -6.0 8.26e+00  -2.3 9.85e-03 6.27e-03h  1
  79 -1.0352221e-01 4.27e+00 1.93e+03  -6.0 4.61e+01  -2.8 3.48e-03 3.52e-03h  1
iter    objective    inf_pr   inf_du lg(mu)  ||d||  lg(rg) alpha_du alpha_pr  ls
  80 -1.0351760e-01 4.22e+00 1.87e+03  -6.0 8.25e+00  -2.4 2.33e-02 1.17e-02h  1
  81 -1.0351778e-01 4.15e+00 1.83e+03  -6.0 7.18e+00  -2.0 4.51e-02 1.72e-02h  1
  82 -1.0346441e-01 3.87e+00 1.71e+03  -6.0 1.16e+01  -2.4 3.08e-02 6.68e-02h  1
  83 -1.0342995e-01 3.52e+00 1.55e+03  -6.0 6.03e+00  -2.0 6.83e-02 9.22e-02h  1
  84 -1.0332783e-01 3.50e+00 1.54e+03  -6.0 2.23e+02  -2.5 5.99e-04 5.51e-03h  1
  85 -1.0311198e-01 1.91e+00 8.42e+02  -6.0 7.62e+00  -2.1 1.58e-01 4.51e-01h  1
  86 -1.0317503e-01 1.65e+00 7.25e+02  -6.0 4.82e+00  -2.5 6.13e-01 1.34e-01h  1
  87 -1.0308285e-01 9.00e-01 3.97e+02  -6.0 7.48e+00  -3.0 5.62e-01 4.53e-01h  1
  88 -1.0309953e-01 7.60e-01 3.35e+02  -6.0 1.85e+00  -2.6 2.46e-02 1.55e-01h  1
  89 -1.0309719e-01 6.98e-01 3.08e+02  -6.0 2.07e+00  -3.1 6.53e-01 8.15e-02h  1
iter    objective    inf_pr   inf_du lg(mu)  ||d||  lg(rg) alpha_du alpha_pr  ls
  90 -1.0305944e-01 6.83e-01 3.02e+02  -6.0 3.40e+01  -3.6 2.67e-02 2.19e-02h  1
  91 -1.0303989e-01 1.87e-01 1.34e+02  -6.0 1.89e+00  -3.1 1.08e-01 7.35e-01h  1
  92 -1.0304193e-01 1.49e-01 1.06e+02  -6.0 4.11e-01  -3.6 9.33e-01 2.06e-01h  1
  93 -1.0306180e-01 1.46e-01 1.03e+02  -6.0 1.87e+01  -4.1 1.94e-01 2.72e-02h  1
  94 -1.0306166e-01 4.46e-02 3.33e+01  -6.0 2.86e-01  -3.7 7.74e-01 6.99e-01h  1
  95 -1.0311540e-01 3.80e-04 1.06e+00  -6.0 3.02e-01  -4.1 1.00e+00 1.00e+00h  1
  96 -1.0327246e-01 2.68e-03 1.09e-01  -6.0 8.82e-01  -4.6 1.00e+00 1.00e+00h  1
  97 -1.0344841e-01 4.48e-03 3.21e+00  -6.0 2.52e+00  -5.1 1.00e+00 3.98e-01h  1
  98 -1.0369561e-01 8.48e-03 1.56e+01  -6.0 6.67e+00  -5.6 7.94e-01 2.29e-01f  1
  99 -1.0398216e-01 1.55e-02 8.03e+01  -6.0 1.71e+01  -6.0 6.34e-01 1.16e-01h  1
iter    objective    inf_pr   inf_du lg(mu)  ||d||  lg(rg) alpha_du alpha_pr  ls
 100 -1.0431889e-01 1.04e-01 5.77e+01  -6.0 3.62e+01  -6.5 1.19e-01 1.30e-01h  1
 101 -1.0496373e-01 2.77e-01 1.66e+03  -6.0 2.93e+01  -7.0 4.96e-02 3.94e-01h  1
 102 -1.0503783e-01 2.71e-01 1.63e+03  -6.0 5.23e+01  -6.6 6.76e-02 2.66e-02h  1
 103 -1.0543465e-01 2.74e-01 1.32e+03  -6.0 3.60e+01  -7.0 1.00e+00 2.88e-01h  1
 104 -1.0716744e-01 7.57e-01 4.67e+02  -6.0 9.63e+01  -7.5 4.87e-01 6.78e-01f  1
 105 -1.0915955e-01 7.66e-01 2.08e+02  -6.0 2.72e+02  -8.0 1.00e+00 5.28e-01h  1
Error in an AMPL evaluation. Run with "halt_on_ampl_error yes" to see details.
Warning: Cutting back alpha due to evaluation error
 106 -1.1060398e-01 6.89e-01 1.57e+02  -6.0 6.51e+02  -8.5 3.90e-03 2.39e-01h  2
 107 -1.1287889e-01 1.13e+00 3.54e+01  -6.0 2.61e+02  -8.1 4.84e-01 1.00e+00h  1
 108 -1.1377613e-01 1.09e+00 2.81e+01  -6.0 6.82e+02  -8.5 3.08e-01 1.68e-01h  1
 109 -1.1732130e-01 1.78e+01 2.89e+01  -6.0 4.34e+03  -9.0 1.37e-01 2.12e-01h  1
iter    objective    inf_pr   inf_du lg(mu)  ||d||  lg(rg) alpha_du alpha_pr  ls
 110 -1.1974882e-01 8.95e+00 1.80e+01  -6.0 5.48e+02  -8.6 4.64e-01 5.50e-01h  1
 111 -1.1996240e-01 1.20e+01 2.28e+01  -6.0 3.52e+03  -9.1 1.14e-01 1.35e-01h  1
 112 -1.2052389e-01 1.17e+01 2.29e+01  -6.0 1.39e+04  -9.5 8.97e-02 2.24e-02h  1
 113 -1.2240175e-01 8.66e+00 1.75e+01  -6.0 1.27e+03  -9.1 3.84e-01 2.85e-01h  1
 114 -1.2304840e-01 8.02e+00 2.75e+01  -6.0 3.26e+03  -9.6 5.28e-01 7.37e-02h  1
 115 -1.2370863e-01 7.35e+00 2.70e+01  -6.0 2.93e+03 -10.1 3.11e-01 8.44e-02h  1
 116 -1.2551156e-01 8.56e+00 2.37e+01  -6.0 1.96e+03  -9.6 1.27e-01 3.82e-01h  1
 117 -1.2621879e-01 1.11e+01 2.86e+01  -6.0 8.37e+02  -9.2 4.49e-01 2.64e-01h  1
 118 -1.2633868e-01 1.04e+01 2.68e+01  -6.0 1.01e+03  -8.8 4.12e-02 7.40e-02h  1
 119 -1.2668357e-01 7.70e+00 3.87e+01  -6.0 8.76e+02  -9.3 4.33e-02 2.61e-01h  1
iter    objective    inf_pr   inf_du lg(mu)  ||d||  lg(rg) alpha_du alpha_pr  ls
 120 -1.2694754e-01 7.10e+00 4.48e+01  -6.0 1.40e+03  -9.7 3.30e-01 1.19e-01h  1
 121 -1.2824345e-01 8.99e+00 4.15e+01  -6.0 2.62e+03 -10.2 1.61e-01 3.79e-01h  1
 122 -1.2828288e-01 8.67e+00 2.80e+01  -6.0 2.42e+03  -9.8 2.85e-01 3.54e-02h  1
 123 -1.2884644e-01 6.43e+00 5.80e+01  -6.0 2.33e+03 -10.3 8.16e-01 3.02e-01h  1
 124 -1.2895037e-01 5.58e+00 4.31e+01  -6.0 4.06e+02  -8.0 2.28e-03 1.35e-01h  1
 125 -1.2895220e-01 3.03e+00 2.54e+01  -6.0 8.18e+01  -8.5 2.23e-01 4.70e-01h  1
 126 -1.2895488e-01 6.35e-02 1.09e+01  -6.0 2.17e+01  -7.2 7.19e-01 1.00e+00h  1
 127 -1.2898093e-01 4.62e-02 1.45e+01  -6.0 3.02e+01  -7.7 1.00e+00 5.93e-01h  1
 128 -1.2907937e-01 1.04e-01 1.52e+01  -6.0 7.90e+01  -8.1 1.00e+00 7.51e-01f  1
 129 -1.2934540e-01 4.14e-01 2.16e+01  -6.0 1.48e+02  -8.6 1.00e+00 1.00e+00h  1
iter    objective    inf_pr   inf_du lg(mu)  ||d||  lg(rg) alpha_du alpha_pr  ls
 130 -1.2939137e-01 3.53e-01 7.05e+01  -6.0 4.53e+01  -8.2 1.00e+00 7.20e-01h  1
 131 -1.2942370e-01 4.46e-01 1.11e+02  -6.0 7.94e+02  -7.8 3.08e-02 1.27e-02h  2
 132 -1.2944437e-01 4.77e-01 1.49e+02  -6.0 3.20e+02  -7.3 3.46e-02 1.52e-02h  2
 133 -1.2950496e-01 3.40e-01 6.70e+01  -6.0 1.19e+01  -6.9 1.00e+00 5.94e-01h  1
 134 -1.2951936e-01 3.24e-01 3.68e+01  -6.0 2.40e+01  -7.4 5.71e-01 5.80e-02h  1
 135 -1.2972300e-01 6.75e-01 5.72e+01  -6.0 3.02e+01  -7.9 1.00e+00 7.60e-01f  1
 136 -1.2983617e-01 4.24e-01 8.14e+01  -6.0 7.22e+01  -8.3 6.84e-01 3.84e-01h  1
 137 -1.3022207e-01 3.86e-01 1.94e+01  -6.0 1.49e+02  -8.8 1.00e+00 1.00e+00h  1
 138 -1.3041292e-01 2.73e-01 1.74e+02  -6.0 4.11e+02  -9.3 4.86e-01 3.54e-01h  1
 139 -1.3090144e-01 5.46e-01 1.67e+02  -6.0 1.27e+03  -9.8 4.63e-01 4.33e-01h  1
iter    objective    inf_pr   inf_du lg(mu)  ||d||  lg(rg) alpha_du alpha_pr  ls
 140 -1.3101748e-01 4.70e-01 8.52e+01  -6.0 1.03e+03  -9.3 1.88e-01 2.01e-01h  1
 141 -1.3110702e-01 5.76e-01 1.29e+02  -6.0 2.68e+03  -9.8 1.01e-01 9.22e-02h  1
 142 -1.3169372e-01 1.87e+00 2.27e+03  -6.0 8.52e+02  -9.4 4.38e-01 8.86e-01h  1
 143 -1.3170617e-01 1.83e+00 6.13e+03  -6.0 8.14e+00  -5.4 7.37e-02 2.36e-02h  1
 144 -1.3168147e-01 1.79e+00 4.85e+03  -6.0 6.47e+01  -5.8 2.25e-02 1.78e-02h  1
 145 -1.3158924e-01 1.42e+00 2.49e+04  -6.0 2.38e+01  -5.4 2.07e-02 2.09e-01h  1
 146 -1.3163132e-01 9.72e-01 1.61e+04  -6.0 6.58e+00  -5.9 4.99e-01 3.21e-01h  1
 147 -1.3164949e-01 7.31e-01 1.21e+04  -6.0 1.50e+00  -5.5 7.05e-01 2.49e-01h  1
 148 -1.3166908e-01 2.72e-01 4.44e+03  -6.0 3.75e+00  -5.9 5.68e-01 6.32e-01h  1
 149 -1.3169298e-01 3.25e-03 3.76e+00  -6.0 1.44e+00  -5.5 1.00e+00 1.00e+00f  1
iter    objective    inf_pr   inf_du lg(mu)  ||d||  lg(rg) alpha_du alpha_pr  ls
 150 -1.3174055e-01 5.24e-03 1.07e+01  -6.0 4.25e+00  -6.0 1.00e+00 6.38e-01h  1
 151 -1.3175630e-01 5.34e-03 1.61e+01  -6.0 2.49e+01  -6.5 4.29e-01 6.64e-02h  1
 152 -1.3209744e-01 1.01e+00 8.49e+01  -6.0 2.27e+01  -6.9 6.90e-01 7.68e-01f  1
 153 -1.3236558e-01 4.70e-01 2.37e+01  -6.0 1.55e+01  -6.5 1.00e+00 1.00e+00h  1
 154 -1.3256318e-01 9.29e-01 5.36e+01  -6.0 3.29e+02  -7.0 4.93e-02 3.38e-02h  1
 155 -1.3272459e-01 6.47e-01 3.36e+01  -6.0 1.11e+01  -7.5 9.02e-01 7.02e-01h  1
 156 -1.3290115e-01 5.66e+00 1.96e+02  -6.0 2.83e+02  -7.9 1.06e-01 8.50e-02h  1
 157 -1.3311492e-01 3.42e+00 9.29e+01  -6.0 5.42e+01  -8.4 8.26e-01 4.97e-01h  1
 158 -1.3326311e-01 2.42e+00 1.06e+02  -6.0 1.76e+02  -8.9 8.50e-01 2.93e-01h  1
 159 -1.3356681e-01 1.49e+00 1.28e+02  -6.0 6.41e+02  -9.4 1.00e+00 4.14e-01h  1
iter    objective    inf_pr   inf_du lg(mu)  ||d||  lg(rg) alpha_du alpha_pr  ls
 160 -1.3462100e-01 1.66e+01 1.06e+02  -6.0 6.16e+03  -9.9 9.41e-02 3.71e-01h  1
 161 -1.3489089e-01 1.89e+01 1.13e+02  -6.0 3.31e+03 -10.3 2.91e-04 3.53e-02h  1
 162 -1.3524837e-01 2.11e+01 1.03e+02  -6.0 4.17e+03 -10.8 1.26e-01 8.12e-02h  1
 163 -1.3529882e-01 2.82e+01 8.71e+01  -6.0 1.23e+04 -11.3 5.18e-02 9.37e-02h  1
 164 -1.3540515e-01 2.48e+01 6.36e+01  -6.0 5.15e+03    -  9.88e-02 1.54e-01h  1
 165 -1.3618894e-01 3.99e+01 4.26e+01  -6.0 2.91e+03    -  4.93e-01 5.47e-01h  1
 166 -1.3619303e-01 3.97e+01 4.23e+01  -6.0 3.07e+04    -  1.05e-04 7.01e-03H  1
 167 -1.3637865e-01 2.44e+01 6.04e+01  -6.0 1.27e+03    -  7.00e-01 5.20e-01h  1
 168 -1.3665884e-01 6.80e+00 1.48e+01  -6.0 6.94e+02    -  8.67e-01 8.95e-01h  1
 169 -1.3665922e-01 6.73e+00 1.47e+01  -6.0 4.16e+03    -  1.16e-05 1.56e-03H  1
iter    objective    inf_pr   inf_du lg(mu)  ||d||  lg(rg) alpha_du alpha_pr  ls
 170 -1.3683254e-01 1.95e+00 2.14e+02  -6.0 3.52e+02    -  2.75e-01 8.50e-01h  1
 171 -1.3696095e-01 9.68e-01 1.85e+03  -6.0 2.28e+02 -10.0 2.67e-01 1.00e+00h  1
 172 -1.3698349e-01 2.03e+01 3.30e+02  -6.0 1.39e+03    -  4.09e-01 7.98e-01h  1
 173 -1.3695399e-01 3.59e-01 4.78e+01  -6.0 9.59e+01    -  5.25e-01 1.00e+00h  1
 174 -1.3702724e-01 1.30e+01 1.05e+02  -6.0 1.39e+03    -  1.80e-01 1.00e+00H  1
 175 -1.3693054e-01 6.32e+00 7.30e+01  -6.0 2.25e+02  -9.5 1.00e+00 5.00e-01h  2
 176 -1.3691080e-01 4.15e+00 1.24e+02  -6.0 7.61e+02 -10.0 1.00e+00 2.50e-01h  3
 177 -1.3690437e-01 3.61e+00 3.26e+01  -6.0 2.85e+02  -9.6 1.00e+00 1.25e-01h  4
 178 -1.3711888e-01 1.20e+01 5.68e+02  -6.0 1.18e+03 -10.1 6.62e-01 1.00e+00H  1
 179 -1.3719452e-01 2.52e+00 5.21e+02  -6.0 5.68e+03    -  8.47e-02 1.20e-01h  2
iter    objective    inf_pr   inf_du lg(mu)  ||d||  lg(rg) alpha_du alpha_pr  ls
 180 -1.3708156e-01 6.89e-01 2.99e+02  -6.0 1.81e+02    -  8.68e-01 1.00e+00h  1
 181 -1.3710841e-01 9.08e-02 1.24e+01  -6.0 9.35e+01    -  1.00e+00 1.00e+00h  1
 182 -1.3710701e-01 3.72e-03 4.75e-02  -6.0 3.65e+00  -9.6 1.00e+00 1.00e+00h  1
 183 -1.3710700e-01 1.03e-03 3.47e-05  -6.0 1.91e+00  -9.2 1.00e+00 1.00e+00h  1
 184 -1.3710697e-01 1.63e-02 3.83e-01  -6.0 1.54e+01  -9.7 1.00e+00 5.00e-01h  2
 185 -1.3710695e-01 6.70e-03 1.35e-04  -6.0 5.55e+00  -9.3 1.00e+00 1.00e+00h  1
 186 -1.3710693e-01 4.09e-02 2.31e+00  -6.0 6.08e+01  -9.7 1.00e+00 2.50e-01h  3
 187 -1.3710682e-01 9.06e-02 4.81e+00  -6.0 1.19e+02 -10.2 1.00e+00 2.39e-01h  3
 188 -1.3710613e-01 1.28e-01 3.30e+00  -6.0 1.16e+02    -  1.00e+00 5.00e-01h  2
 189 -1.3710608e-01 7.29e-02 2.14e-02  -6.0 6.32e+01    -  1.00e+00 1.00e+00h  1
iter    objective    inf_pr   inf_du lg(mu)  ||d||  lg(rg) alpha_du alpha_pr  ls
 190 -1.3710648e-01 1.93e-03 6.37e-04  -6.0 1.02e+01    -  1.00e+00 1.00e+00h  1
 191 -1.3710648e-01 8.91e-07 1.13e-07  -6.0 2.19e-01    -  1.00e+00 1.00e+00h  1
 192 -1.3776408e-01 8.84e+00 3.53e+01  -7.5 3.82e+03    -  1.23e-01 1.98e-01f  1
 193 -1.3798081e-01 9.89e+00 3.50e+01  -7.5 4.01e+03    -  9.51e-02 8.30e-02h  1
 194 -1.3821154e-01 1.03e+01 1.69e+01  -7.5 3.76e+03    -  2.16e-01 1.50e-01h  1
 195 -1.3841023e-01 1.12e+01 4.17e+01  -7.5 3.58e+03    -  3.57e-01 1.98e-01h  1
 196 -1.3862325e-01 6.94e+00 1.83e+01  -7.5 2.93e+02  -9.8 3.16e-01 3.94e-01h  1
 197 -1.3875801e-01 1.63e+01 2.11e+01  -7.5 4.91e+03    -  3.51e-02 1.92e-01h  1
 198 -1.3906106e-01 1.24e+01 8.20e+01  -7.5 2.06e+03    -  2.91e-01 7.05e-01h  1
 199 -1.3910191e-01 9.90e+00 3.93e+01  -7.5 1.02e+03    -  3.85e-01 2.28e-01h  1
iter    objective    inf_pr   inf_du lg(mu)  ||d||  lg(rg) alpha_du alpha_pr  ls
 200 -1.3914188e-01 7.81e+00 1.53e+01  -7.5 8.04e+02    -  4.25e-01 2.55e-01h  1
 201 -1.3919684e-01 5.06e+00 9.19e+00  -7.5 7.38e+02    -  4.79e-01 4.86e-01h  1
 202 -1.3923568e-01 3.76e+00 1.34e+01  -7.5 6.94e+02    -  4.49e-01 3.34e-01h  1
 203 -1.3929330e-01 7.11e+00 5.30e+01  -7.5 8.85e+02    -  3.32e-02 5.22e-01h  1
 204 -1.3932859e-01 2.00e+01 1.13e+02  -7.5 3.57e+03    -  1.96e-02 2.85e-01h  1
 205 -1.3933329e-01 1.91e+01 1.94e+01  -7.5 1.04e+03    -  2.53e-01 4.61e-02h  1
 206 -1.3939305e-01 4.41e+01 2.14e+02  -7.5 2.10e+03    -  5.91e-02 6.46e-01h  1
 207 -1.3943023e-01 3.51e+01 4.25e+02  -7.5 1.59e+03    -  1.59e-02 3.35e-01h  1
 208 -1.3946407e-01 5.26e+01 4.75e+02  -7.5 3.56e+03    -  1.99e-01 3.33e-01h  1
 209 -1.3946431e-01 5.25e+01 4.71e+02  -7.5 5.50e+01 -10.3 3.83e-03 2.08e-03h  1
iter    objective    inf_pr   inf_du lg(mu)  ||d||  lg(rg) alpha_du alpha_pr  ls
 210 -1.3953225e-01 2.25e+01 1.49e+03  -7.5 7.62e+02    -  1.61e-02 6.88e-01f  1
 211 -1.3954035e-01 2.69e+01 1.41e+03  -7.5 5.31e+04 -10.7 2.41e-02 8.93e-03h  1
 212 -1.3957312e-01 1.95e+01 1.25e+03  -7.5 3.28e+02 -11.2 2.37e-01 2.80e-01h  1
 213 -1.3957596e-01 1.91e+01 1.11e+03  -7.5 1.24e+03    -  3.39e-01 2.06e-02h  1
 214 -1.3961852e-01 4.42e+01 5.23e+02  -7.5 3.92e+03    -  1.57e-01 3.22e-01h  1
 215 -1.3963451e-01 3.94e+01 3.36e+03  -7.5 9.33e+02 -10.8 5.66e-01 1.09e-01h  1
 216 -1.3965372e-01 3.47e+01 4.10e+02  -7.5 1.39e+03 -10.4 7.03e-01 1.20e-01h  1
 217 -1.3968795e-01 2.81e+01 1.21e+03  -7.5 4.00e+03 -10.8 1.48e-01 1.90e-01h  1
 218 -1.3968868e-01 1.03e+01 1.44e+03  -7.5 7.12e+02 -10.4 8.04e-02 6.32e-01h  1
 219 -1.3969954e-01 4.94e+00 1.40e+02  -7.5 6.11e+02 -10.9 6.66e-01 1.00e+00h  1
iter    objective    inf_pr   inf_du lg(mu)  ||d||  lg(rg) alpha_du alpha_pr  ls
 220 -1.3970350e-01 4.86e+00 1.32e+02  -7.5 2.74e+03 -11.4 3.03e-01 6.15e-02h  1
 221 -1.3972387e-01 1.16e+01 4.48e+01  -7.5 1.31e+03 -10.9 6.51e-01 6.57e-01h  1
 222 -1.3973544e-01 1.76e+00 8.80e-01  -7.5 3.49e+02 -10.5 1.00e+00 1.00e+00h  1
 223 -1.3974063e-01 2.84e+00 4.66e+00  -7.5 3.43e+05    -  6.46e-03 1.01e-03h  1
 224 -1.3979278e-01 5.88e+01 6.08e+01  -7.5 6.38e+03    -  4.61e-02 3.18e-01h  1
 225 -1.3977529e-01 4.83e+01 3.04e+02  -7.5 2.35e+03    -  3.58e-01 3.19e-01h  1
 226 -1.3976814e-01 1.03e+01 7.73e+01  -7.5 2.29e+02    -  9.86e-02 7.91e-01h  1
 227 -1.3977013e-01 1.49e+00 8.76e+01  -7.5 1.23e+02    -  8.91e-01 1.00e+00h  1
 228 -1.3977365e-01 8.42e-01 7.41e+00  -7.5 1.61e+02    -  2.79e-01 1.00e+00h  1
 229 -1.3982046e-01 6.91e+01 8.00e+01  -7.5 2.27e+03 -11.0 7.58e-01 9.55e-01h  1
iter    objective    inf_pr   inf_du lg(mu)  ||d||  lg(rg) alpha_du alpha_pr  ls
 230 -1.3979001e-01 3.06e+01 1.50e+02  -7.5 1.43e+03    -  4.12e-02 1.00e+00h  1
 231 -1.3979615e-01 2.10e+00 4.09e+00  -7.5 3.39e+02 -10.6 1.00e+00 1.00e+00h  1
 232 -1.3983540e-01 6.38e+01 1.05e+02  -7.5 6.53e+03    -  4.20e-01 3.08e-01h  1
 233 -1.3983409e-01 5.52e+01 9.08e+01  -7.5 3.90e+02    -  8.40e-01 1.35e-01h  1
 234 -1.3983373e-01 5.03e+01 8.53e+01  -7.5 1.35e+02    -  3.70e-02 8.90e-02h  1
 235 -1.3984322e-01 9.58e+00 8.48e+01  -7.5 7.01e+02    -  4.05e-01 1.00e+00h  1
 236 -1.3984649e-01 7.54e-01 2.40e+00  -7.5 1.95e+02    -  1.05e-01 1.00e+00h  1
 237 -1.3986071e-01 1.29e+01 3.58e+01  -7.5 8.53e+02 -11.1 7.50e-01 1.00e+00h  1
 238 -1.3987674e-01 1.76e+01 7.61e+01  -7.5 9.62e+02    -  3.85e-02 1.00e+00h  1
 239 -1.3988355e-01 1.58e+01 6.63e+01  -7.5 1.43e+03 -11.5 7.27e-02 2.66e-01h  1
iter    objective    inf_pr   inf_du lg(mu)  ||d||  lg(rg) alpha_du alpha_pr  ls
 240 -1.3986446e-01 6.72e+00 1.44e+02  -7.5 1.27e+03    -  1.00e+00 1.00e+00H  1
 241 -1.3988434e-01 9.83e+00 1.35e+02  -7.5 1.79e+03    -  1.33e-01 5.94e-01H  1
 242 -1.3988518e-01 4.88e-02 5.80e+00  -7.5 4.78e+01    -  1.00e+00 1.00e+00h  1
 243 -1.3988512e-01 1.01e-05 3.14e-03  -7.5 6.60e-01    -  1.00e+00 1.00e+00h  1
 244 -1.3988513e-01 2.14e-06 1.46e-05  -7.5 3.27e-01    -  1.00e+00 1.00e+00h  1
 245 -1.3988513e-01 8.69e-10 1.33e-08  -7.5 6.56e-03    -  1.00e+00 1.00e+00h  1
 246 -1.3988929e-01 1.93e-01 1.91e+00  -9.0 2.25e+02    -  3.70e-01 4.44e-01h  1
 247 -1.3989846e-01 4.67e+01 1.51e+02  -9.0 5.07e+04    -  4.82e-02 3.02e-02h  1
 248 -1.3989999e-01 4.70e+01 1.57e+02  -9.0 4.03e+04    -  2.30e-02 5.39e-03h  1
 249 -1.3991211e-01 5.13e+01 1.73e+02  -9.0 2.53e+03    -  2.10e-02 6.22e-01h  1
iter    objective    inf_pr   inf_du lg(mu)  ||d||  lg(rg) alpha_du alpha_pr  ls
 250 -1.3991251e-01 5.09e+01 1.71e+02  -9.0 4.26e+03    -  4.18e-04 8.12e-03h  1
 251 -1.3991804e-01 4.04e+01 8.25e+01  -9.0 1.51e+03    -  1.49e-02 2.73e-01h  1
 252 -1.3991925e-01 3.95e+01 8.02e+01  -9.0 3.08e+03    -  1.57e-02 2.66e-02h  1
 253 -1.3992711e-01 3.26e+01 5.65e+01  -9.0 1.64e+03    -  3.23e-01 2.90e-01h  1
 254 -1.3992966e-01 3.06e+01 5.25e+01  -9.0 1.69e+03    -  4.57e-02 7.09e-02h  1
 255 -1.3993357e-01 2.82e+01 1.51e+02  -9.0 1.70e+03    -  2.18e-01 9.46e-02h  1
 256 -1.3995125e-01 2.55e+01 5.30e+04  -9.0 1.62e+03    -  4.76e-03 3.95e-01h  1
 257 -1.3995195e-01 2.53e+01 5.26e+04  -9.0 1.72e+03    -  4.28e-01 8.27e-03h  1
 258 -1.3995464e-01 2.44e+01 5.07e+04  -9.0 3.00e+03    -  2.00e-02 3.60e-02h  1
 259 -1.3995575e-01 2.37e+01 4.91e+04  -9.0 5.49e+03    -  5.34e-03 3.13e-02h  1
iter    objective    inf_pr   inf_du lg(mu)  ||d||  lg(rg) alpha_du alpha_pr  ls
 260 -1.3995736e-01 2.23e+01 4.61e+04  -9.0 8.36e+02    -  3.38e-02 5.96e-02h  1
 261 -1.3996385e-01 1.74e+01 3.58e+04  -9.0 2.56e+02    -  1.11e-01 2.23e-01h  1
 262 -1.3998252e-01 7.58e+00 1.43e+04  -9.0 2.70e+02    -  6.62e-02 6.00e-01h  1
 263 -1.4002290e-01 1.68e+00 6.07e+02  -9.0 2.56e+02    -  6.46e-01 1.00e+00h  1
 264 -1.4003599e-01 1.25e+00 5.82e+02  -9.0 2.77e+02    -  3.27e-01 1.81e-01h  1
 265 -1.4005731e-01 1.08e+00 3.30e+03  -9.0 3.25e+02    -  4.81e-01 2.35e-01h  1
 266r-1.4005731e-01 1.08e+00 1.00e+03  -0.1 0.00e+00    -  0.00e+00 1.12e-08R  2
 267r-1.4005583e-01 1.08e+00 7.68e+03  -0.1 4.81e+05    -  7.87e-09 3.79e-09f  1
 268 -1.4005584e-01 1.08e+00 9.86e+03  -9.0 5.09e+01    -  1.09e-06 4.15e-03h  1
 269 -1.4005387e-01 1.07e+00 1.13e+04  -9.0 7.59e+02    -  2.99e-05 8.33e-03h  1
iter    objective    inf_pr   inf_du lg(mu)  ||d||  lg(rg) alpha_du alpha_pr  ls
 270 -1.4003537e-01 9.40e-01 4.98e+05  -9.0 1.46e+02    -  9.20e-05 1.30e-01h  1
 271 -1.4003087e-01 8.90e-01 4.85e+05  -9.0 9.79e+01    -  3.00e-02 5.32e-02h  1
 272 -1.3997232e-01 2.81e-01 2.28e+06  -9.0 1.00e+02    -  1.14e-01 6.87e-01h  1
 273 -1.3994635e-01 1.71e-01 1.58e+07  -9.0 1.19e+02    -  1.55e-01 5.97e-01h  1
 274 -1.3994668e-01 1.63e-01 1.51e+07  -9.0 1.82e+01    -  7.17e-01 4.97e-02h  1
 275 -1.3989317e-01 1.60e-01 3.81e+07  -9.0 8.74e+01    -  8.47e-04 9.81e-01h  1
 276r-1.3989317e-01 1.60e-01 9.99e+02  -1.1 0.00e+00  -5.7 0.00e+00 1.02e-08R  2
 277r-1.3989415e-01 1.60e-01 9.99e+02  -1.1 2.66e+04    -  1.19e-07 4.34e-08f  1
 278 -1.3989410e-01 1.45e-01 4.06e+02  -9.0 8.89e+00    -  4.14e-03 9.36e-02h  1
 279 -1.3989292e-01 1.35e-01 3.83e+02  -9.0 7.47e+00    -  9.41e-02 6.90e-02h  1
iter    objective    inf_pr   inf_du lg(mu)  ||d||  lg(rg) alpha_du alpha_pr  ls
 280 -1.3989247e-01 1.27e-01 3.59e+02  -9.0 8.05e+00    -  1.97e-01 6.29e-02h  1
 281 -1.3988836e-01 7.27e-02 2.05e+02  -9.0 4.69e+00    -  2.97e-01 4.27e-01h  1
 282 -1.3988714e-01 5.46e-02 1.54e+02  -9.0 2.77e+00    -  6.83e-01 2.50e-01h  3
 283 -1.3988675e-01 4.77e-02 1.35e+02  -9.0 2.04e+00    -  8.19e-01 1.25e-01h  4
 284 -1.3988654e-01 3.58e-02 1.01e+02  -9.0 2.90e+00    -  8.94e-01 2.50e-01h  3
 285 -1.3996090e-01 5.74e-01 2.79e+02  -9.0 2.76e+02    -  2.21e-01 3.08e-01H  1
 286 -1.3997325e-01 6.82e-02 1.43e+01  -9.0 5.36e+01    -  2.89e-01 1.00e+00h  1
 287 -1.3997334e-01 6.81e-02 1.43e+01  -9.0 3.93e+01    -  7.70e-01 1.37e-03h  1
 288 -1.4005311e-01 2.40e-01 7.91e+00  -9.0 2.38e+02    -  3.82e-02 4.40e-01f  1
 289 -1.4005311e-01 2.40e-01 7.90e+00  -9.0 1.41e+02    -  4.44e-01 1.15e-03h  1
iter    objective    inf_pr   inf_du lg(mu)  ||d||  lg(rg) alpha_du alpha_pr  ls
 290 -1.4008801e-01 3.61e-01 5.03e+00  -9.0 2.73e+02    -  4.04e-01 3.59e-01f  1
 291 -1.4008994e-01 3.30e-01 4.59e+00  -9.0 4.96e+01    -  7.17e-01 8.73e-02h  1
 292 -1.4010892e-01 1.70e-01 1.48e+00  -9.0 7.95e+01    -  7.21e-01 6.78e-01h  1
 293 -1.4012208e-01 2.61e-01 2.72e-01  -9.0 1.10e+02    -  7.73e-01 9.85e-01h  1
 294 -1.4011872e-01 2.36e-01 6.41e+03  -9.0 1.60e+02    -  2.84e-04 3.29e-01h  1
 295 -1.4011582e-01 2.07e-01 4.81e+03  -9.0 1.47e+02    -  6.81e-02 2.50e-01h  3
 296 -1.4011564e-01 1.32e-01 2.77e+03  -9.0 5.82e+01    -  7.01e-01 4.24e-01h  1
 297 -1.4011376e-01 8.51e-03 2.74e+00  -9.0 8.57e+01    -  3.85e-01 1.00e+00H  1
 298 -1.4011442e-01 6.59e-03 2.04e+00  -9.0 1.39e+01    -  9.86e-01 2.54e-01h  1
 299 -1.4011448e-01 3.85e-03 1.17e-03  -9.0 1.41e+01    -  1.00e+00 1.00e+00h  1
iter    objective    inf_pr   inf_du lg(mu)  ||d||  lg(rg) alpha_du alpha_pr  ls
 300 -1.4011445e-01 8.06e-07 7.64e-09  -9.0 2.09e-01    -  1.00e+00 1.00e+00h  1
 301 -1.4011445e-01 2.88e-10 4.34e-14  -9.0 1.91e-05    -  1.00e+00 1.00e+00h  1

Number of Iterations....: 301

                                   (scaled)                 (unscaled)
Objective...............:  -1.4011444980050258e-01   -1.4011444980050258e-01
Dual infeasibility......:   4.3381964687227992e-14    4.3381964687227992e-14
Constraint violation....:   2.8783573094437465e-10    2.8783573094437465e-10
Complementarity.........:   9.0909091449717030e-10    9.0909091449717030e-10
Overall NLP error.......:   9.0909091449717030e-10    9.0909091449717030e-10


Number of objective function evaluations             = 380
Number of objective gradient evaluations             = 302
Number of equality constraint evaluations            = 381
Number of inequality constraint evaluations          = 381
Number of equality constraint Jacobian evaluations   = 307
Number of inequality constraint Jacobian evaluations = 307
Number of Lagrangian Hessian evaluations             = 301
Total CPU secs in IPOPT (w/o function evaluations)   =    131.431
Total CPU secs in NLP function evaluations           =      4.861

EXIT: Optimal Solution Found.
